200
300
240
239
239
238
238
238
237
237
237
235
235
234
232
232
232
231
231
229
229
228
227
225
225
225
224
223
223
217
215
215
215
215
214
214
211
210
210
210
208
207
207
207
207
206
205
203
202
199
198
197
196
196
196
196
195
194
194
194
193
193
190
190
187
186
183
183
183
182
179
179
177
177
174
173
173
173
173
173
172
172
172
171
171
170
168
167
166
166
165
162
161
159
158
158
158
156
155
152
151
151
150
150
149
147
147
144
144
144
144
144
142
141
139
139
138
138
138
138
137
136
135
134
134
133
132
132
131
128
128
124
124
124
124
124
123
122
120
119
118
118
117
117
116
115
115
115
113
112
112
111
109
109
108
104
104
103
103
102
101
100
99
99
99
99
98
97
96
96
94
92
92
91
88
88
88
86
85
84
84
83
81
79
77
76
74
74
73
72
72
68
68
66
66
65
64
64
63
62
61
60
